# Node Net
280   1
383   1
201   1
341   2
 80   2
389   2
320   3
392   3
  3   3
  7   4
140   4
261   4
382   5
200   5
 21   5
384   6
385   6
384   6
  2   7
  9   7
  9   7
321   8
380   8
281   8
388   9
361   9
 60   9
360  10
398  10
241  10
 20  11
 18  11
